NAME : berlin52.tsp
TYPE : TOUR
DIMENSION : 52
TOUR_LENGTH : 8135.992683383857
TOUR_SECTION
1
22
31
18
3
17
21
42
7
2
30
23
20
50
16
44
46
25
4
6
15
5
24
48
38
37
40
39
34
35
36
49
32
45
19
41
8
9
10
43
33
51
11
52
14
13
27
12
28
26
47
29
-1
